# File generated with Atomsk by pkroll on 2020-06-19 15:23:21
0.980000
      7.80701000        0.00000000        0.00000000
      0.00000000       13.52228000        0.00000000
      0.00009900        0.00000000        5.65895000
    24      32
Cartesian
      2.31944000       10.61630000        1.10754000
      6.22294000        3.85516000        1.10754000
      1.35690000        3.46165000        1.10743000
      5.26040000       10.22279000        1.10743000
      0.22724000        6.20537000        1.10751000
      4.13074000       12.96651000        1.10751000
      6.22292000        9.66712000        3.93701000
      2.31942000        2.90598000        3.93701000
      5.26038000        3.29949000        3.93690000
      1.35688000       10.06063000        3.93690000
      0.22722000        7.31691000        3.93698000
      4.13072000        0.55577000        3.93698000
      5.54598000        7.34252000        5.58548000
      1.64248000        0.58138000        5.58548000
      6.48220000        1.13183000        5.58546000
      2.57870000        7.89297000        5.58546000
      7.48915000       11.80917000        5.58545000
      3.58565000        5.04803000        5.58545000
      1.64251000       12.94090000        2.75600000
      5.54601000        6.17976000        2.75600000
      2.57872000        5.62931000        2.75599000
      6.48222000       12.39045000        2.75599000
      7.48918000        1.71311000        2.75597000
      3.58568000        8.47425000        2.75597000
     -0.00005000        0.00000000        5.59094000
      3.90345000        6.76113000        5.59094000
     -0.00002000        0.00000000        2.76146000
      3.90348000        6.76115000        2.76146000
     -0.00003000        9.01479000        3.63007000
      3.90349000        2.25365000        3.63007000
     -0.00001000        4.50749000        0.80060000
      3.90352000       11.26863000        0.80060000
      1.16768000       10.88544000        5.48005000
      5.07118000        4.12430000        5.48005000
      1.69975000        2.32959000        5.48007000
      5.60325000        9.09073000        5.48007000
      1.03593000        7.06822000        5.48003000
      4.93943000        0.30708000        5.48003000
      5.07121000        9.39798000        2.65057000
      1.16771000        2.63684000        2.65057000
      5.60328000        4.43155000        2.65060000
      1.69978000       11.19269000        2.65060000
      4.93945000       13.21520000        2.65056000
      1.03595000        6.45406000        2.65056000
      6.37665000        6.73561000        1.32048000
      2.47315000       13.49675000        1.32048000
      6.59250000        2.15461000        1.32041000
      2.68900000        8.91575000        1.32041000
      2.64468000        4.63217000        1.32052000
      6.54818000       11.39331000        1.32052000
      2.47314000        0.02553000        4.14995000
      6.37664000        6.78667000        4.14995000
      6.59248000       11.36767000        4.14989000
      2.68898000        4.60653000        4.14989000
      2.64466000        8.89011000        4.14999000
      6.54816000        2.12897000        4.14999000
